;; Automatically generated 10D closed-loop LQR CHC for eady
;; Note: Singleton initialization applied (all states start exactly at 0.0)
(set-logic HORN)

(declare-fun Inv (Real Real Real Real Real Real Real Real Real Real) Bool)

;; 1. Initialization
(assert
  (forall ((x0 Real) (x1 Real) (x2 Real) (x3 Real) (x4 Real) (x5 Real) (x6 Real) (x7 Real) (x8 Real) (x9 Real))
    (=>
      (and
        (= x0 0.0)
        (= x1 0.0)
        (= x2 0.0)
        (= x3 0.0)
        (= x4 0.0)
        (= x5 0.0)
        (= x6 0.0)
        (= x7 0.0)
        (= x8 0.0)
        (= x9 0.0)
      )
      (Inv x0 x1 x2 x3 x4 x5 x6 x7 x8 x9)
    )
  )
)

;; 2. Transition (Closed-Loop Affine Step)
(assert
  (forall ((x0 Real) (x1 Real) (x2 Real) (x3 Real) (x4 Real) (x5 Real) (x6 Real) (x7 Real) (x8 Real) (x9 Real)
           (x0_next Real) (x1_next Real) (x2_next Real) (x3_next Real) (x4_next Real) (x5_next Real) (x6_next Real) (x7_next Real) (x8_next Real) (x9_next Real))
    (=>
      (and
        (Inv x0 x1 x2 x3 x4 x5 x6 x7 x8 x9)

        (= x0_next (+ (* 0.958680 x0) (+ (* -0.014504 x1) (+ (* -0.000703 x2) (+ (* -0.008677 x3) (+ (* -0.004217 x4) (+ (* -0.008839 x5) (+ (* -0.007381 x6) (+ (* -0.011347 x7) (+ (* -0.012037 x8) (* -0.018061 x9)))))))))))
        (= x1_next (+ (* 0.005212 x0) (+ (* 0.961796 x1) (+ (* -0.014704 x2) (+ (* -0.001208 x3) (+ (* -0.009411 x4) (+ (* -0.004893 x5) (+ (* -0.010546 x6) (+ (* -0.008730 x7) (+ (* -0.014247 x8) (* -0.016168 x9)))))))))))
        (= x2_next (+ (* -0.008789 x0) (+ (* 0.004537 x1) (+ (* 0.965866 x2) (+ (* -0.015208 x3) (+ (* -0.001942 x4) (+ (* -0.010087 x5) (+ (* -0.006599 x6) (+ (* -0.011895 x7) (+ (* -0.011630 x8) (* -0.018378 x9)))))))))))
        (= x3_next (+ (* -0.001319 x0) (+ (* -0.009464 x1) (+ (* 0.004337 x2) (+ (* 0.969881 x3) (+ (* -0.015943 x4) (+ (* -0.002618 x5) (+ (* -0.011793 x6) (+ (* -0.007948 x7) (+ (* -0.014795 x8) (* -0.015762 x9)))))))))))
        (= x4_next (+ (* -0.006513 x0) (+ (* -0.001995 x1) (+ (* -0.009664 x2) (+ (* 0.003832 x3) (+ (* 0.973629 x4) (+ (* -0.016618 x5) (+ (* -0.004324 x6) (+ (* -0.013142 x7) (+ (* -0.010848 x8) (* -0.018926 x9)))))))))))
        (= x5_next (+ (* -0.002567 x0) (+ (* -0.007189 x1) (+ (* -0.002194 x2) (+ (* -0.010168 x3) (+ (* 0.003098 x4) (+ (* 0.977121 x5) (+ (* -0.018325 x6) (+ (* -0.005673 x7) (+ (* -0.016042 x8) (* -0.014979 x9)))))))))))
        (= x6_next (+ (* -0.005731 x0) (+ (* -0.003242 x1) (+ (* -0.007388 x2) (+ (* -0.002699 x3) (+ (* -0.010903 x4) (+ (* 0.002422 x5) (+ (* 0.979063 x6) (+ (* -0.019674 x7) (+ (* -0.008573 x8) (* -0.020174 x9)))))))))))
        (= x7_next (+ (* -0.003115 x0) (+ (* -0.006407 x1) (+ (* -0.003442 x2) (+ (* -0.007893 x3) (+ (* -0.003434 x4) (+ (* -0.011578 x5) (+ (* 0.000716 x6) (+ (* 0.980744 x7) (+ (* -0.022574 x8) (* -0.012704 x9)))))))))))
        (= x8_next (+ (* -0.005325 x0) (+ (* -0.003790 x1) (+ (* -0.006606 x2) (+ (* -0.003947 x3) (+ (* -0.008628 x4) (+ (* -0.004109 x5) (+ (* -0.013285 x6) (+ (* -0.000633 x7) (+ (* 0.980250 x8) (* -0.026705 x9)))))))))))
        (= x9_next (+ (* -0.003432 x0) (+ (* -0.006000 x1) (+ (* -0.003990 x2) (+ (* -0.007111 x3) (+ (* -0.004681 x4) (+ (* -0.009303 x5) (+ (* -0.005816 x6) (+ (* -0.014634 x7) (+ (* -0.003533 x8) (* 0.977965 x9)))))))))))
      )
      (Inv x0_next x1_next x2_next x3_next x4_next x5_next x6_next x7_next x8_next x9_next)
    )
  )
)

;; 3. Safety Query (Actuator Saturation > 12.0V or < -12.0V)
(assert
  (forall ((x0 Real) (x1 Real) (x2 Real) (x3 Real) (x4 Real) (x5 Real) (x6 Real) (x7 Real) (x8 Real) (x9 Real))
    (=>
      (and
        (Inv x0 x1 x2 x3 x4 x5 x6 x7 x8 x9)
        (or
          (> (+ (* -0.430824 x0) (+ (* -0.498373 x1) (+ (* -0.518322 x2) (+ (* -0.568798 x3) (+ (* -0.642261 x4) (+ (* -0.709804 x5) (+ (* -0.880462 x6) (+ (* -1.015336 x7) (+ (* -1.305339 x8) (* -1.718472 x9)))))))))) 12.0)
          (< (+ (* -0.430824 x0) (+ (* -0.498373 x1) (+ (* -0.518322 x2) (+ (* -0.568798 x3) (+ (* -0.642261 x4) (+ (* -0.709804 x5) (+ (* -0.880462 x6) (+ (* -1.015336 x7) (+ (* -1.305339 x8) (* -1.718472 x9)))))))))) -12.0)
        )
      )
      false
    )
  )
)

(check-sat)
(get-model)
